solution status: optimal solution found
objective value:                     197523.347654893
d11(0,0)                                            1 	(obj:0)
d11(1,1)                                            1 	(obj:0)
d11(3,7)                                            1 	(obj:0)
d11(3,9)                                            1 	(obj:0)
d11(3,11)                                           1 	(obj:0)
d11(3,13)                                           1 	(obj:0)
d11(4,15)                                           1 	(obj:0)
d11(4,16)                                           1 	(obj:0)
d11(4,17)                                           1 	(obj:0)
d11(4,19)                                           1 	(obj:0)
d11(4,20)                                           1 	(obj:0)
d11(4,21)                                           1 	(obj:0)
d11(4,23)                                           1 	(obj:0)
d11(4,24)                                           1 	(obj:0)
d11(4,25)                                           1 	(obj:0)
d11(4,27)                                           1 	(obj:0)
d11(4,28)                                           1 	(obj:0)
d11(4,29)                                           1 	(obj:0)
d11(5,31)                                           1 	(obj:0)
d11(5,32)                                           1 	(obj:0)
d11(5,33)                                           1 	(obj:0)
d11(5,34)                                           1 	(obj:0)
d11(5,35)                                           1 	(obj:0)
d11(5,36)                                           1 	(obj:0)
d11(5,37)                                           1 	(obj:0)
d11(5,38)                                           1 	(obj:0)
d11(5,39)                                           1 	(obj:0)
d11(5,40)                                           1 	(obj:0)
d11(5,41)                                           1 	(obj:0)
d11(5,42)                                           1 	(obj:0)
d11(5,43)                                           1 	(obj:0)
d11(5,44)                                           1 	(obj:0)
d11(5,45)                                           1 	(obj:0)
d11(5,46)                                           1 	(obj:0)
d11(5,47)                                           1 	(obj:0)
d11(5,48)                                           1 	(obj:0)
d11(5,49)                                           1 	(obj:0)
d11(5,51)                                           1 	(obj:0)
d11(5,52)                                           1 	(obj:0)
d11(5,53)                                           1 	(obj:0)
d11(5,54)                                           1 	(obj:0)
d11(5,55)                                           1 	(obj:0)
d11(5,56)                                           1 	(obj:0)
d11(5,57)                                           1 	(obj:0)
d11(5,58)                                           1 	(obj:0)
d11(5,59)                                           1 	(obj:0)
d11(5,60)                                           1 	(obj:0)
d11(5,61)                                           1 	(obj:0)
d11(5,62)                                           1 	(obj:0)
d11(6,63)                                           1 	(obj:0)
d11(6,65)                                           1 	(obj:0)
d11(6,67)                                           1 	(obj:0)
d11(6,69)                                           1 	(obj:0)
d11(6,71)                                           1 	(obj:0)
d11(6,73)                                           1 	(obj:0)
d11(6,75)                                           1 	(obj:0)
d11(6,77)                                           1 	(obj:0)
d11(6,79)                                           1 	(obj:0)
d11(6,81)                                           1 	(obj:0)
d11(6,83)                                           1 	(obj:0)
d11(6,85)                                           1 	(obj:0)
d11(6,87)                                           1 	(obj:0)
d11(6,89)                                           1 	(obj:0)
d11(6,91)                                           1 	(obj:0)
d11(6,93)                                           1 	(obj:0)
d11(6,95)                                           1 	(obj:0)
d11(6,97)                                           1 	(obj:0)
d11(6,99)                                           1 	(obj:0)
d11(6,101)                                          1 	(obj:0)
d11(6,103)                                          1 	(obj:0)
d11(6,105)                                          1 	(obj:0)
d11(6,107)                                          1 	(obj:0)
d11(6,109)                                          1 	(obj:0)
d11(6,111)                                          1 	(obj:0)
d11(6,113)                                          1 	(obj:0)
d11(6,115)                                          1 	(obj:0)
d11(6,117)                                          1 	(obj:0)
d11(6,119)                                          1 	(obj:0)
d11(6,121)                                          1 	(obj:0)
d11(6,123)                                          1 	(obj:0)
d11(6,125)                                          1 	(obj:0)
d12(1,2)                                            1 	(obj:0)
d12(2,4)                                            1 	(obj:0)
d12(2,6)                                            1 	(obj:0)
d12(3,8)                                            1 	(obj:0)
d12(3,10)                                           1 	(obj:0)
d12(3,12)                                           1 	(obj:0)
d12(3,14)                                           1 	(obj:0)
d12(6,64)                                           1 	(obj:0)
d12(6,66)                                           1 	(obj:0)
d12(6,68)                                           1 	(obj:0)
d12(6,70)                                           1 	(obj:0)
d12(6,72)                                           1 	(obj:0)
d12(6,74)                                           1 	(obj:0)
d12(6,76)                                           1 	(obj:0)
d12(6,78)                                           1 	(obj:0)
d12(6,80)                                           1 	(obj:0)
d12(6,82)                                           1 	(obj:0)
d12(6,84)                                           1 	(obj:0)
d12(6,86)                                           1 	(obj:0)
d12(6,88)                                           1 	(obj:0)
d12(6,90)                                           1 	(obj:0)
d12(6,92)                                           1 	(obj:0)
d12(6,94)                                           1 	(obj:0)
d12(6,96)                                           1 	(obj:0)
d12(6,98)                                           1 	(obj:0)
d12(6,100)                                          1 	(obj:0)
d12(6,102)                                          1 	(obj:0)
d12(6,104)                                          1 	(obj:0)
d12(6,106)                                          1 	(obj:0)
d12(6,108)                                          1 	(obj:0)
d12(6,110)                                          1 	(obj:0)
d12(6,112)                                          1 	(obj:0)
d12(6,114)                                          1 	(obj:0)
d12(6,116)                                          1 	(obj:0)
d12(6,118)                                          1 	(obj:0)
d12(6,120)                                          1 	(obj:0)
d12(6,122)                                          1 	(obj:0)
d12(6,124)                                          1 	(obj:0)
d12(6,126)                                          1 	(obj:0)
d21(4,15)                                           1 	(obj:0)
d21(4,16)                                           1 	(obj:0)
d21(4,17)                                           1 	(obj:0)
d21(4,19)                                           1 	(obj:0)
d21(4,23)                                           1 	(obj:0)
d21(5,31)                                           1 	(obj:0)
d21(5,32)                                           1 	(obj:0)
d21(5,33)                                           1 	(obj:0)
d21(5,34)                                           1 	(obj:0)
d21(5,35)                                           1 	(obj:0)
d21(5,36)                                           1 	(obj:0)
d21(5,37)                                           1 	(obj:0)
d21(5,39)                                           1 	(obj:0)
d21(5,40)                                           1 	(obj:0)
d21(5,41)                                           1 	(obj:0)
d21(5,43)                                           1 	(obj:0)
d21(5,47)                                           1 	(obj:0)
d21(5,48)                                           1 	(obj:0)
d21(5,49)                                           1 	(obj:0)
d21(5,51)                                           1 	(obj:0)
d21(5,55)                                           1 	(obj:0)
d21(6,63)                                           1 	(obj:0)
d21(6,64)                                           1 	(obj:0)
d21(6,65)                                           1 	(obj:0)
d21(6,66)                                           1 	(obj:0)
d21(6,67)                                           1 	(obj:0)
d21(6,68)                                           1 	(obj:0)
d21(6,69)                                           1 	(obj:0)
d21(6,70)                                           1 	(obj:0)
d21(6,71)                                           1 	(obj:0)
d21(6,72)                                           1 	(obj:0)
d21(6,73)                                           1 	(obj:0)
d21(6,74)                                           1 	(obj:0)
d21(6,75)                                           1 	(obj:0)
d21(6,76)                                           1 	(obj:0)
d21(6,79)                                           1 	(obj:0)
d21(6,80)                                           1 	(obj:0)
d21(6,81)                                           1 	(obj:0)
d21(6,82)                                           1 	(obj:0)
d21(6,83)                                           1 	(obj:0)
d21(6,84)                                           1 	(obj:0)
d21(6,85)                                           1 	(obj:0)
d21(6,87)                                           1 	(obj:0)
d21(6,88)                                           1 	(obj:0)
d21(6,89)                                           1 	(obj:0)
d21(6,91)                                           1 	(obj:0)
d21(6,95)                                           1 	(obj:0)
d21(6,96)                                           1 	(obj:0)
d21(6,97)                                           1 	(obj:0)
d21(6,98)                                           1 	(obj:0)
d21(6,99)                                           1 	(obj:0)
d21(6,100)                                          1 	(obj:0)
d21(6,103)                                          1 	(obj:0)
d21(6,104)                                          1 	(obj:0)
d21(6,105)                                          1 	(obj:0)
d21(6,107)                                          1 	(obj:0)
d21(6,111)                                          1 	(obj:0)
d21(6,112)                                          1 	(obj:0)
d21(6,113)                                          1 	(obj:0)
d21(6,115)                                          1 	(obj:0)
d21(6,119)                                          1 	(obj:0)
y2(6,100)                            1371.46941440584 	(obj:0)
y2(6,102)                            1371.46941440584 	(obj:0)
y2(6,104)                            1371.46941440584 	(obj:0)
y2(6,106)                            1371.46941440584 	(obj:0)
y2(6,108)                            1371.46941440584 	(obj:0)
y2(6,110)                            1371.46941440584 	(obj:0)
y2(6,112)                            1371.46941440584 	(obj:0)
y2(6,114)                            1371.46941440584 	(obj:0)
y2(6,116)                            1371.46941440584 	(obj:0)
y2(6,118)                            1371.46941440584 	(obj:0)
y2(6,120)                            1371.46941440584 	(obj:0)
y2(6,122)                            1371.46941440584 	(obj:0)
y2(6,124)                            1371.46941440584 	(obj:0)
y2(6,126)                            1371.46941440584 	(obj:0)
STE(1,1)                             6889.82306464008 	(obj:0)
STE(0,0)                                         7875 	(obj:0)
STE(1,2)                             8245.14285595056 	(obj:0)
STE(2,3)                             6259.82306464008 	(obj:0)
STE(2,4)                             7576.03715051658 	(obj:0)
STE(2,5)                             7615.14285595056 	(obj:0)
STE(2,6)                             8931.35694182707 	(obj:0)
STE(3,7)                             5274.64612928016 	(obj:0)
STE(3,8)                             6629.96592059064 	(obj:0)
STE(3,9)                             6590.86021515666 	(obj:0)
STE(3,10)                            7946.18000646715 	(obj:0)
STE(3,11)                            6629.96592059064 	(obj:0)
STE(3,12)                            7985.28571190113 	(obj:0)
STE(3,13)                            7946.18000646715 	(obj:0)
STE(3,14)                            9301.49979777763 	(obj:0)
STE(4,15)                            2986.39623039134 	(obj:0)
STE(4,16)                            4644.64612928016 	(obj:0)
STE(4,17)                            4341.71602170182 	(obj:0)
STE(4,18)                            5999.96592059064 	(obj:0)
STE(4,19)                            4302.61031626785 	(obj:0)
STE(4,20)                            5960.86021515666 	(obj:0)
STE(4,21)                            5657.93010757833 	(obj:0)
STE(4,22)                            7316.18000646715 	(obj:0)
STE(4,23)                            4341.71602170182 	(obj:0)
STE(4,24)                            5999.96592059064 	(obj:0)
STE(4,25)                            5697.03581301231 	(obj:0)
STE(4,26)                            7355.28571190113 	(obj:0)
STE(4,27)                            5657.93010757833 	(obj:0)
STE(4,28)                            7316.18000646715 	(obj:0)
STE(4,29)                            7013.24989888882 	(obj:0)
STE(4,30)                            8671.49979777763 	(obj:0)
STE(5,31)                            698.146331502523 	(obj:0)
STE(5,32)                            2356.39623039134 	(obj:0)
STE(5,33)                            2356.39623039134 	(obj:0)
STE(5,34)                            4014.64612928016 	(obj:0)
STE(5,35)                            2053.46612281301 	(obj:0)
STE(5,36)                            3711.71602170182 	(obj:0)
STE(5,37)                            3711.71602170182 	(obj:0)
STE(5,38)                            5369.96592059064 	(obj:0)
STE(5,39)                            2014.36041737903 	(obj:0)
STE(5,40)                            3672.61031626785 	(obj:0)
STE(5,41)                            3672.61031626785 	(obj:0)
STE(5,42)                            5330.86021515666 	(obj:0)
STE(5,43)                            3369.68020868951 	(obj:0)
STE(5,44)                            5027.93010757833 	(obj:0)
STE(5,45)                            5027.93010757833 	(obj:0)
STE(5,46)                            6686.18000646715 	(obj:0)
STE(5,47)                            2053.46612281301 	(obj:0)
STE(5,48)                            3711.71602170182 	(obj:0)
STE(5,49)                            3711.71602170182 	(obj:0)
STE(5,50)                            5369.96592059064 	(obj:0)
STE(5,51)                            3408.78591412349 	(obj:0)
STE(5,52)                            5067.03581301231 	(obj:0)
STE(5,53)                            5067.03581301231 	(obj:0)
STE(5,54)                            6725.28571190113 	(obj:0)
STE(5,55)                            3369.68020868952 	(obj:0)
STE(5,56)                            5027.93010757833 	(obj:0)
STE(5,57)                            5027.93010757833 	(obj:0)
STE(5,58)                            6686.18000646715 	(obj:0)
STE(5,59)                                        4725 	(obj:0)
STE(5,60)                            6383.24989888882 	(obj:0)
STE(5,61)                            6383.24989888882 	(obj:0)
STE(5,62)                            8041.49979777763 	(obj:0)
STE(6,63)                            53.1804109118825 	(obj:0)
STE(6,64)                            1371.04227518808 	(obj:0)
STE(6,65)                             1711.4303098007 	(obj:0)
STE(6,66)                            3029.29217407689 	(obj:0)
STE(6,67)                             1711.4303098007 	(obj:0)
STE(6,68)                            3029.29217407689 	(obj:0)
STE(6,69)                            3369.68020868952 	(obj:0)
STE(6,70)                            4687.54207296571 	(obj:0)
STE(6,71)                            1408.50020222237 	(obj:0)
STE(6,72)                            2726.36206649856 	(obj:0)
STE(6,73)                            3066.75010111118 	(obj:0)
STE(6,74)                            4384.61196538737 	(obj:0)
STE(6,75)                            3066.75010111118 	(obj:0)
STE(6,76)                            4384.61196538738 	(obj:0)
STE(6,77)                                        4725 	(obj:0)
STE(6,78)                            6042.86186427619 	(obj:0)
STE(6,79)                            1369.39449678839 	(obj:0)
STE(6,80)                            2687.25636106458 	(obj:0)
STE(6,81)                            3027.64439567721 	(obj:0)
STE(6,82)                             4345.5062599534 	(obj:0)
STE(6,83)                            3027.64439567721 	(obj:0)
STE(6,84)                             4345.5062599534 	(obj:0)
STE(6,85)                            4685.89429456602 	(obj:0)
STE(6,86)                            6003.75615884221 	(obj:0)
STE(6,87)                            2724.71428809887 	(obj:0)
STE(6,88)                            4042.57615237507 	(obj:0)
STE(6,89)                            4382.96418698769 	(obj:0)
STE(6,90)                            5700.82605126388 	(obj:0)
STE(6,91)                            4382.96418698769 	(obj:0)
STE(6,92)                            5700.82605126388 	(obj:0)
STE(6,93)                            6041.21408587651 	(obj:0)
STE(6,94)                             7359.0759501527 	(obj:0)
STE(6,95)                            1408.50020222237 	(obj:0)
STE(6,96)                            2726.36206649856 	(obj:0)
STE(6,97)                            3066.75010111118 	(obj:0)
STE(6,98)                            4384.61196538738 	(obj:0)
STE(6,99)                            3066.75010111118 	(obj:0)
STE(6,100)                           4384.61196538738 	(obj:0)
STE(6,101)                                       4725 	(obj:0)
STE(6,102)                           6042.86186427619 	(obj:0)
STE(6,103)                           2763.81999353285 	(obj:0)
STE(6,104)                           4081.68185780904 	(obj:0)
STE(6,105)                           4422.06989242167 	(obj:0)
STE(6,106)                           5739.93175669786 	(obj:0)
STE(6,107)                           4422.06989242167 	(obj:0)
STE(6,108)                           5739.93175669786 	(obj:0)
STE(6,109)                           6080.31979131049 	(obj:0)
STE(6,110)                           7398.18165558668 	(obj:0)
STE(6,111)                           2724.71428809887 	(obj:0)
STE(6,112)                           4042.57615237507 	(obj:0)
STE(6,113)                           4382.96418698769 	(obj:0)
STE(6,114)                           5700.82605126388 	(obj:0)
STE(6,115)                           4382.96418698769 	(obj:0)
STE(6,116)                           5700.82605126388 	(obj:0)
STE(6,117)                           6041.21408587651 	(obj:0)
STE(6,118)                            7359.0759501527 	(obj:0)
STE(6,119)                           4080.03407940936 	(obj:0)
STE(6,120)                           5397.89594368555 	(obj:0)
STE(6,121)                           5738.28397829818 	(obj:0)
STE(6,122)                           7056.14584257437 	(obj:0)
STE(6,123)                           5738.28397829818 	(obj:0)
STE(6,124)                           7056.14584257437 	(obj:0)
STE(6,125)                           7396.53387718699 	(obj:0)
STE(6,126)                           8714.39574146318 	(obj:0)
y1(6,99)                             13.4693285315768 	(obj:0)
y1(6,101)                            13.4693285315767 	(obj:0)
y1(6,103)                            13.4693285315768 	(obj:0)
y1(6,105)                            13.4693285315768 	(obj:0)
y1(6,107)                            13.4693285315768 	(obj:0)
y1(6,109)                            13.4693285315765 	(obj:0)
y1(6,111)                            13.4693285315768 	(obj:0)
y1(6,113)                            13.4693285315768 	(obj:0)
y1(6,115)                            13.4693285315768 	(obj:0)
y1(6,117)                             13.469328531577 	(obj:0)
y1(6,119)                            13.4693285315768 	(obj:0)
y1(6,121)                            13.4693285315768 	(obj:0)
y1(6,123)                            13.4693285315765 	(obj:0)
y1(6,125)                            13.4693285315767 	(obj:0)
BG(5)                                723.522421037826 	(obj:10)
WB(1)                                259.958937079152 	(obj:0)
AVE(1)                               3259.55177567504 	(obj:0)
WB(2)                                 586.14594926618 	(obj:0)
AVE(2)                               3259.55588804169 	(obj:0)
WB(3)                                579.768813495777 	(obj:0)
AVE(3)                               3579.36165209166 	(obj:0)
WB(4)                              0.0732654787452702 	(obj:0)
AVE(4)                               3579.36576445831 	(obj:0)
AVE(5)                               3472.77007794174 	(obj:0)
WB(6)                                359.207743503928 	(obj:0)
AVE(6)                                3046.3618950668 	(obj:0)
WG(1)                                2999.59283859589 	(obj:10)
WG(2)                                2673.40993877551 	(obj:10)
WG(3)                                2999.59283859588 	(obj:10)
WG(4)                                3579.29249897956 	(obj:10)
WG(5)                                3472.77007794174 	(obj:10)
WG(6)                                2687.15415156287 	(obj:10)
BG(4)                                             617 	(obj:10)
y1(1,1)                              319.659241823932 	(obj:0)
y1(3,7)                              319.659241823927 	(obj:0)
y1(3,9)                              319.659241823927 	(obj:0)
y1(3,11)                             319.659241823927 	(obj:0)
y1(3,13)                             319.659241823927 	(obj:0)
y1(4,15)                             1492.42490899994 	(obj:0)
y1(4,17)                             1492.42490899994 	(obj:0)
y1(4,19)                             1492.42490899994 	(obj:0)
y1(4,21)                             1492.42490899994 	(obj:0)
y1(4,23)                             1492.42490899994 	(obj:0)
y1(4,25)                             1492.42490899994 	(obj:0)
y1(4,27)                             1492.42490899994 	(obj:0)
y1(4,29)                             1492.42490899994 	(obj:0)
y1(5,31)                             1492.42490899993 	(obj:0)
y1(5,33)                             1492.42490899993 	(obj:0)
y1(5,35)                             1492.42490899993 	(obj:0)
y1(5,37)                             1492.42490899993 	(obj:0)
y1(5,39)                             1492.42490899993 	(obj:0)
y1(5,41)                             1492.42490899993 	(obj:0)
y1(5,43)                             1492.42490899993 	(obj:0)
y1(5,45)                             1492.42490899993 	(obj:0)
y1(5,47)                             1492.42490899993 	(obj:0)
y1(5,49)                             1492.42490899993 	(obj:0)
y1(5,51)                             1492.42490899993 	(obj:0)
y1(5,53)                             1492.42490899993 	(obj:0)
y1(5,55)                             1492.42490899993 	(obj:0)
y1(5,57)                             1492.42490899993 	(obj:0)
y1(5,59)                             1492.42490899993 	(obj:0)
y1(5,61)                             1492.42490899993 	(obj:0)
y1(6,63)                             13.4693285315768 	(obj:0)
y1(6,65)                             13.4693285315768 	(obj:0)
y1(6,67)                             13.4693285315768 	(obj:0)
y1(6,69)                             13.4693285315768 	(obj:0)
y1(6,71)                             13.4693285315768 	(obj:0)
y1(6,73)                             13.4693285315768 	(obj:0)
y1(6,75)                             13.4693285315768 	(obj:0)
y1(6,77)                             13.4693285315768 	(obj:0)
y1(6,79)                             13.4693285315768 	(obj:0)
y1(6,81)                             13.4693285315768 	(obj:0)
y1(6,83)                             13.4693285315768 	(obj:0)
y1(6,85)                             13.4693285315768 	(obj:0)
y1(6,87)                             13.4693285315768 	(obj:0)
y1(6,89)                             13.4693285315768 	(obj:0)
y1(6,91)                             13.4693285315768 	(obj:0)
y1(6,93)                             13.4693285315767 	(obj:0)
y1(6,95)                             13.4693285315768 	(obj:0)
y1(6,97)                             13.4693285315768 	(obj:0)
y2(1,2)                              1052.78195363217 	(obj:0)
y2(2,4)                              1385.48851144895 	(obj:0)
y2(2,6)                              1385.48851144895 	(obj:0)
y2(3,8)                              1052.78195363217 	(obj:0)
y2(3,10)                             1052.78195363217 	(obj:0)
y2(3,12)                             1052.78195363217 	(obj:0)
y2(3,14)                             1052.78195363217 	(obj:0)
y2(6,64)                             1371.46941440584 	(obj:0)
y2(6,66)                             1371.46941440584 	(obj:0)
y2(6,68)                             1371.46941440584 	(obj:0)
y2(6,70)                             1371.46941440584 	(obj:0)
y2(6,72)                             1371.46941440584 	(obj:0)
y2(6,74)                             1371.46941440584 	(obj:0)
y2(6,76)                             1371.46941440584 	(obj:0)
y2(6,78)                             1371.46941440584 	(obj:0)
y2(6,80)                             1371.46941440584 	(obj:0)
y2(6,82)                             1371.46941440584 	(obj:0)
y2(6,84)                             1371.46941440584 	(obj:0)
y2(6,86)                             1371.46941440584 	(obj:0)
y2(6,88)                             1371.46941440584 	(obj:0)
y2(6,90)                             1371.46941440584 	(obj:0)
y2(6,92)                             1371.46941440584 	(obj:0)
y2(6,94)                             1371.46941440584 	(obj:0)
y2(6,96)                             1371.46941440584 	(obj:0)
y2(6,98)                             1371.46941440584 	(obj:0)
